50 2134353461
77295933 59295933
68707496 52707496
34402574 30402574
172012870 152012870
68805148 60805148
42942185 32942185
137610296 121610296
17201287 15201287
60119059 46119059
8588437 6588437
60119059 46119059
51530622 39530622
68805148 60805148
34402574 30402574
8588437 6588437
17201287 15201287
8588437 6588437
68805148 60805148
17201287 15201287
172012870 152012870
120409009 106409009
34402574 30402574
68805148 60805148
51603861 45603861
17176874 13176874
17201287 15201287
154811583 136811583
154811583 136811583
103207722 91207722
154811583 136811583
51603861 45603861
51530622 39530622
17176874 13176874
25765311 19765311
68707496 52707496
25765311 19765311
86006435 76006435
42942185 32942185
60119059 46119059
8588437 6588437
154811583 136811583
86006435 76006435
60119059 46119059
120409009 106409009
51530622 39530622
172012870 152012870
34402574 30402574
51603861 45603861
34402574 30402574
60119059 46119059
